c description: Tseitin formula on Random 4-regular graph of 7 vertices, with odd charge
c generator: CNFgen (0.9.2)
c copyright: (C) 2012-2022 Massimo Lauria <massimo.lauria@uniroma1.it>
c url: https://massimolauria.net/cnfgen
c command line: cnfgen tseitin 7
c
p cnf 14 56
1 2 3 -4 0
1 2 -3 4 0
1 -2 3 4 0
1 -2 -3 -4 0
-1 2 3 4 0
-1 2 -3 -4 0
-1 -2 3 -4 0
-1 -2 -3 4 0
5 6 7 8 0
5 6 -7 -8 0
5 -6 7 -8 0
5 -6 -7 8 0
-5 6 7 -8 0
-5 6 -7 8 0
-5 -6 7 8 0
-5 -6 -7 -8 0
1 5 9 -10 0
1 5 -9 10 0
1 -5 9 10 0
1 -5 -9 -10 0
-1 5 9 10 0
-1 5 -9 -10 0
-1 -5 9 -10 0
-1 -5 -9 10 0
2 6 9 11 0
2 6 -9 -11 0
2 -6 9 -11 0
2 -6 -9 11 0
-2 6 9 -11 0
-2 6 -9 11 0
-2 -6 9 11 0
-2 -6 -9 -11 0
7 10 12 -13 0
7 10 -12 13 0
7 -10 12 13 0
7 -10 -12 -13 0
-7 10 12 13 0
-7 10 -12 -13 0
-7 -10 12 -13 0
-7 -10 -12 13 0
3 11 12 14 0
3 11 -12 -14 0
3 -11 12 -14 0
3 -11 -12 14 0
-3 11 12 -14 0
-3 11 -12 14 0
-3 -11 12 14 0
-3 -11 -12 -14 0
4 8 13 -14 0
4 8 -13 14 0
4 -8 13 14 0
4 -8 -13 -14 0
-4 8 13 14 0
-4 8 -13 -14 0
-4 -8 13 -14 0
-4 -8 -13 14 0
